--- Job gams_0064_002_32_04_0.67_05_0.50_0.90_14_problem.txt Start 02/24/21 20:05:29 35.2.0 r33388c4 WEX-WEI x86 64bit/MS Windows
--- Applying:
    C:\Users\MariaSosnovskaya\GAMS35\gmsprmNT.txt
--- GAMS Parameters defined
    Input C:\Users\MariaSosnovskaya\Downloads\WfmGams3\problems\gams_0064_002_32_04_0.67_05_0.50_0.90_14_problem.txt
    ScrDir C:\Users\MariaSosnovskaya\Downloads\WfmGams3\225i\
    SysDir C:\Users\MariaSosnovskaya\GAMS35\
Licensee: GAMS Evaluation License                        S210124/0001AB-GEN
          Sobolev Institute of Mathematics, Discrete Optimization LaDCE1098
          C:\Users\MariaSosnovskaya\GAMS35\gamslice.txt
          Evaluation license: Not for commercial or production use
GAMS 35.2.0   Copyright (C) 1987-2021 GAMS Development. All rights reserved
--- Starting compilation
--- gams_0064_002_32_04_0.67_05_0.50_0.90_14_problem.txt(22) 3 Mb
--- . gams_0064_002_32_04_0.67_05_0.50_0.90_14.inc(6600) 3 Mb
--- gams_0064_002_32_04_0.67_05_0.50_0.90_14_problem.txt(98) 3 Mb
--- Starting execution: elapsed 0:00:00.032
--- gams_0064_002_32_04_0.67_05_0.50_0.90_14_problem.txt(6621) 4 Mb
--- Generating MIP model mymodel
--- gams_0064_002_32_04_0.67_05_0.50_0.90_14_problem.txt(6677) 9 Mb
---   16,769 rows  12,289 columns  56,257 non-zeroes
---   12,288 discrete-columns
--- Executing CPLEX (Solvelink=2): elapsed 0:00:00.152

IBM ILOG CPLEX   35.2.0 r33388c4 Released Jun 02, 2021 WEI x86 64bit/MS Window

--- GAMS/Cplex licensed for continuous and discrete problems.
--- Space for names approximately 0.61 Mb
--- Use option 'names no' to turn use of names off
--- GMO memory 6.31 Mb (peak 6.40 Mb)
--- Dictionary memory 0.00 Mb
--- Cplex 20.1.0.1 link memory 0.43 Mb (peak 1.99 Mb)
--- Starting Cplex

Version identifier: 20.1.0.1 | 2021-04-07 | 3a818710c
CPXPARAM_Advance                                 0
CPXPARAM_Threads                                 1
CPXPARAM_MIP_Display                             4
CPXPARAM_TimeLimit                               3600
CPXPARAM_MIP_Tolerances_AbsMIPGap                0
Generic callback                                 0x50
Tried aggregator 2 times.
MIP Presolve eliminated 8321 rows and 962 columns.
Aggregator did 192 substitutions.
Reduced MIP has 8256 rows, 11136 columns, and 37476 nonzeros.
Reduced MIP has 11136 binaries, 0 generals, 0 SOSs, and 0 indicators.
Presolve time = 0.08 sec. (42.06 ticks)
Probing fixed 928 vars, tightened 0 bounds.
Probing changed sense of 56 constraints.
Probing time = 0.08 sec. (29.55 ticks)
Tried aggregator 16 times.
MIP Presolve eliminated 448 rows and 985 columns.
Aggregator did 448 substitutions.
Reduced MIP has 7360 rows, 9703 columns, and 32876 nonzeros.
Reduced MIP has 9703 binaries, 0 generals, 0 SOSs, and 0 indicators.
Presolve time = 0.59 sec. (314.42 ticks)
Probing time = 0.02 sec. (4.38 ticks)
Tried aggregator 1 time.
Detecting symmetries...
Reduced MIP has 7360 rows, 9703 columns, and 32876 nonzeros.
Reduced MIP has 9703 binaries, 0 generals, 0 SOSs, and 0 indicators.
Presolve time = 0.06 sec. (29.04 ticks)
Probing time = 0.01 sec. (4.38 ticks)
Clique table members: 24159.
MIP emphasis: balance optimality and feasibility.
MIP search method: dynamic search.
Parallel mode: none, using 1 thread.
Tried aggregator 1 time.
No LP presolve or aggregator reductions.
Presolve time = 0.00 sec. (4.28 ticks)
Initializing dual steep norms . . .

Iteration log . . .
Iteration:     1   Dual objective     =          8340.000000
Perturbation started.
Iteration:   101   Dual objective     =          8340.000000
Iteration:   465   Dual objective     =          8339.999877
Iteration:   828   Dual objective     =          8339.999770
Iteration:  1191   Dual objective     =          8339.999647
Iteration:  1549   Dual objective     =          8339.999537
Iteration:  1922   Dual objective     =          8339.999414
Iteration:  2281   Dual objective     =          8339.999315
Iteration:  2628   Dual objective     =          8339.999263
Iteration:  2954   Dual objective     =          8339.999229
Iteration:  3273   Dual objective     =          8339.999208
Iteration:  3578   Dual objective     =          8339.999187
Iteration:  3858   Dual objective     =          8339.999169
Iteration:  4139   Dual objective     =          8339.999157
Iteration:  4401   Dual objective     =          8339.999145
Iteration:  4642   Dual objective     =          8339.999137
Iteration:  4878   Dual objective     =          8339.999128
Iteration:  5054   Dual objective     =          8339.999124
Iteration:  5204   Dual objective     =          8339.999119
Iteration:  5344   Dual objective     =          8339.999113
Iteration:  5477   Dual objective     =          8339.999108
Iteration:  5605   Dual objective     =          8339.999104
Iteration:  5730   Dual objective     =          8339.999100
Iteration:  5856   Dual objective     =          8339.999097
Iteration:  5992   Dual objective     =          8339.999093
Iteration:  6115   Dual objective     =          8339.999091
Iteration:  6243   Dual objective     =          8339.999088
Iteration:  6379   Dual objective     =          8339.999085
Iteration:  6504   Dual objective     =          8339.999084
Iteration:  6622   Dual objective     =          8339.999082
Iteration:  6747   Dual objective     =          8339.999080
Iteration:  6865   Dual objective     =          8339.999079
Iteration:  6990   Dual objective     =          8339.999078
Iteration:  7110   Dual objective     =          8339.999078
Removing perturbation.

Iteration log . . .
Iteration:     1   Dual objective     =          8340.000000
Root relaxation solution time = 0.94 sec. (580.06 ticks)

        Nodes                                         Cuts/
   Node  Left     Objective  IInf  Best Integer    Best Bound    ItCnt     Gap

      0     0     8340.0000  1426                   8340.0000     7170         
      0     0     8340.0000   618                    Cuts: 15     7364         
      0     0     8340.0000   368                   Cuts: 100     7855         
      0     0     8340.0000   343                ZeroHalf: 27     8023         
      0     0     8340.0000   454                ZeroHalf: 70     8457         
*     0+    0                         8340.0000     8340.0000             0.00%
Found incumbent of value 8340.000000 after 4.21 sec. (2610.69 ticks)
      0     0        cutoff           8340.0000     8340.0000     8457    0.00%
Elapsed time = 4.21 sec. (2610.69 ticks, tree = 0.01 MB, solutions = 1)

Zero-half cuts applied:  48
Lift and project cuts applied:  4
Gomory fractional cuts applied:  14

Root node processing (before b&c):
  Real time             =    4.23 sec. (2611.24 ticks)
Sequential b&c:
  Real time             =    0.00 sec. (0.00 ticks)
                          ------------
Total (root+branch&cut) =    4.23 sec. (2611.24 ticks)

--- MIP status (101): integer optimal solution.
--- Cplex Time: 4.23sec (det. 2611.28 ticks)

--- Fixing integer variables and solving final LP...

Version identifier: 20.1.0.1 | 2021-04-07 | 3a818710c
CPXPARAM_Advance                                 2
CPXPARAM_Threads                                 1
CPXPARAM_MIP_Display                             4
CPXPARAM_TimeLimit                               3600
CPXPARAM_MIP_Tolerances_AbsMIPGap                0
Tried aggregator 1 time.
LP Presolve eliminated 16769 rows and 12290 columns.
All rows and columns eliminated.
Presolve time = 0.00 sec. (7.09 ticks)

--- Fixed MIP status (1): optimal.
--- Cplex Time: 0.02sec (det. 12.43 ticks)


Proven optimal solution
MIP Solution:         8340.000000    (8457 iterations, 0 nodes)
Final Solve:          8340.000000    (0 iterations)

Best possible:        8340.000000
Absolute gap:            0.000000
Relative gap:            0.000000

--- Reading solution for model mymodel
--- gams_0064_002_32_04_0.67_05_0.50_0.90_14_problem.txt(6677) 9 Mb  4 secs
--- Executing after solve: elapsed 0:00:04.558
--- gams_0064_002_32_04_0.67_05_0.50_0.90_14_problem.txt(6678) 9 Mb--- gams_0064_002_32_04_0.67_05_0.50_0.90_14_problem.txt(6698) 9 Mb
--- Putfile results C:\Users\MariaSosnovskaya\Downloads\WfmGams3\problems\gams_0064_002_32_04_0.67_05_0.50_0.90_14_results.txt
*** Status: Normal completion
--- Job gams_0064_002_32_04_0.67_05_0.50_0.90_14_problem.txt Stop 02/24/21 20:05:33 elapsed 0:00:04.579
